NAME          DCAP_2_4_3_500_SS96
ROWS
 N  OBJ
 L  CON1
 L  CON2
 L  CON3
 L  CON4
 L  CON5
 L  CON6
 L  CON7
 L  CON8
 L  CON9
 L  CON10
 L  CON11
 L  CON12
 E  CON13
 E  CON14
 E  CON15
 E  CON16
 E  CON17
 E  CON18
 E  CON19
 E  CON20
 E  CON21
 E  CON22
 E  CON23
 E  CON24
COLUMNS
    x[1,1]    OBJ       6.180167      CON1      1.000000    
    x[1,1]    CON7      -1.000000     CON8      -1.000000   
    x[1,1]    CON9      -1.000000   
    x[1,2]    OBJ       6.563535      CON2      1.000000    
    x[1,2]    CON8      -1.000000     CON9      -1.000000   
    x[1,3]    OBJ       7.443064      CON3      1.000000    
    x[1,3]    CON9      -1.000000   
    x[2,1]    OBJ       6.732585      CON4      1.000000    
    x[2,1]    CON10     -1.000000     CON11     -1.000000   
    x[2,1]    CON12     -1.000000   
    x[2,2]    OBJ       5.039546      CON5      1.000000    
    x[2,2]    CON11     -1.000000     CON12     -1.000000   
    x[2,3]    OBJ       6.054841      CON6      1.000000    
    x[2,3]    CON12     -1.000000   
    MARKER    'MARKER'                'INTORG'
    u[1,1]    OBJ       48.076654     CON1      -1.000000   
    u[1,2]    OBJ       20.066487     CON2      -1.000000   
    u[1,3]    OBJ       32.230043     CON3      -1.000000   
    u[2,1]    OBJ       49.996186     CON4      -1.000000   
    u[2,2]    OBJ       49.466655     CON5      -1.000000   
    u[2,3]    OBJ       27.484319     CON6      -1.000000   
    y[1,1,1]  OBJ       5.890956      CON7      1.374349    
    y[1,1,1]  CON13     1.000000    
    y[1,1,2]  OBJ       8.764008      CON8      0.950712    
    y[1,1,2]  CON14     1.000000    
    y[1,1,3]  OBJ       7.351574      CON9      0.564795    
    y[1,1,3]  CON15     1.000000    
    y[1,2,1]  OBJ       7.440865      CON7      1.172446    
    y[1,2,1]  CON16     1.000000    
    y[1,2,2]  OBJ       8.504792      CON8      1.080837    
    y[1,2,2]  CON17     1.000000    
    y[1,2,3]  OBJ       9.583816      CON9      1.430142    
    y[1,2,3]  CON18     1.000000    
    y[1,3,1]  OBJ       9.981200      CON7      0.700515    
    y[1,3,1]  CON19     1.000000    
    y[1,3,2]  OBJ       7.321911      CON8      1.203953    
    y[1,3,2]  CON20     1.000000    
    y[1,3,3]  OBJ       6.302442      CON9      1.412113    
    y[1,3,3]  CON21     1.000000    
    y[1,4,1]  OBJ       6.141171      CON7      1.117273    
    y[1,4,1]  CON22     1.000000    
    y[1,4,2]  OBJ       5.882275      CON8      0.890904    
    y[1,4,2]  CON23     1.000000    
    y[1,4,3]  OBJ       5.871037      CON9      0.922662    
    y[1,4,3]  CON24     1.000000    
    y[2,1,1]  OBJ       9.187189      CON10     1.374349    
    y[2,1,1]  CON13     1.000000    
    y[2,1,2]  OBJ       8.138944      CON11     0.950712    
    y[2,1,2]  CON14     1.000000    
    y[2,1,3]  OBJ       7.041663      CON12     0.564795    
    y[2,1,3]  CON15     1.000000    
    y[2,2,1]  OBJ       7.710133      CON10     1.172446    
    y[2,2,1]  CON16     1.000000    
    y[2,2,2]  OBJ       8.769399      CON11     1.080837    
    y[2,2,2]  CON17     1.000000    
    y[2,2,3]  OBJ       6.903743      CON12     1.430142    
    y[2,2,3]  CON18     1.000000    
    y[2,3,1]  OBJ       5.796804      CON10     0.700515    
    y[2,3,1]  CON19     1.000000    
    y[2,3,2]  OBJ       6.541718      CON11     1.203953    
    y[2,3,2]  CON20     1.000000    
    y[2,3,3]  OBJ       7.363186      CON12     1.412113    
    y[2,3,3]  CON21     1.000000    
    y[2,4,1]  OBJ       5.054948      CON10     1.117273    
    y[2,4,1]  CON22     1.000000    
    y[2,4,2]  OBJ       7.687538      CON11     0.890904    
    y[2,4,2]  CON23     1.000000    
    y[2,4,3]  OBJ       6.638777      CON12     0.922662    
    y[2,4,3]  CON24     1.000000    
    z[1,1]    OBJ       935.953429    CON13     1.000000    
    z[1,2]    OBJ       841.129319    CON14     1.000000    
    z[1,3]    OBJ       734.533169    CON15     1.000000    
    z[2,1]    OBJ       887.425545    CON16     1.000000    
    z[2,2]    OBJ       750.859096    CON17     1.000000    
    z[2,3]    OBJ       830.739346    CON18     1.000000    
    z[3,1]    OBJ       937.091546    CON19     1.000000    
    z[3,2]    OBJ       802.834223    CON20     1.000000    
    z[3,3]    OBJ       695.789848    CON21     1.000000    
    z[4,1]    OBJ       526.173168    CON22     1.000000    
    z[4,2]    OBJ       736.242011    CON23     1.000000    
    z[4,3]    OBJ       603.456188    CON24     1.000000    
    MARKER    'MARKER'                 'INTEND'
RHS
    RHS       CON1      -0.000000     CON2      -0.000000   
    RHS       CON3      -0.000000     CON4      -0.000000   
    RHS       CON5      -0.000000     CON6      -0.000000   
    RHS       CON7      -0.000000     CON8      -0.000000   
    RHS       CON9      -0.000000     CON10     -0.000000   
    RHS       CON11     -0.000000     CON12     -0.000000   
    RHS       CON13     1.000000      CON14     1.000000    
    RHS       CON15     1.000000      CON16     1.000000    
    RHS       CON17     1.000000      CON18     1.000000    
    RHS       CON19     1.000000      CON20     1.000000    
    RHS       CON21     1.000000      CON22     1.000000    
    RHS       CON23     1.000000      CON24     1.000000    
BOUNDS
 BV BOUND     u[1,1]  
 BV BOUND     u[1,2]  
 BV BOUND     u[1,3]  
 BV BOUND     u[2,1]  
 BV BOUND     u[2,2]  
 BV BOUND     u[2,3]  
 BV BOUND     y[1,1,1]
 BV BOUND     y[1,1,2]
 BV BOUND     y[1,1,3]
 BV BOUND     y[1,2,1]
 BV BOUND     y[1,2,2]
 BV BOUND     y[1,2,3]
 BV BOUND     y[1,3,1]
 BV BOUND     y[1,3,2]
 BV BOUND     y[1,3,3]
 BV BOUND     y[1,4,1]
 BV BOUND     y[1,4,2]
 BV BOUND     y[1,4,3]
 BV BOUND     y[2,1,1]
 BV BOUND     y[2,1,2]
 BV BOUND     y[2,1,3]
 BV BOUND     y[2,2,1]
 BV BOUND     y[2,2,2]
 BV BOUND     y[2,2,3]
 BV BOUND     y[2,3,1]
 BV BOUND     y[2,3,2]
 BV BOUND     y[2,3,3]
 BV BOUND     y[2,4,1]
 BV BOUND     y[2,4,2]
 BV BOUND     y[2,4,3]
 BV BOUND     z[1,1]  
 BV BOUND     z[1,2]  
 BV BOUND     z[1,3]  
 BV BOUND     z[2,1]  
 BV BOUND     z[2,2]  
 BV BOUND     z[2,3]  
 BV BOUND     z[3,1]  
 BV BOUND     z[3,2]  
 BV BOUND     z[3,3]  
 BV BOUND     z[4,1]  
 BV BOUND     z[4,2]  
 BV BOUND     z[4,3]  
ENDATA
